proyfinal/src/viki/013/andrea/andrea-localstore/experimentInOfficeAgust.take6/worker_11/6879c039-294e-4017-866a-7167bbe93e0a.als.cnf.out
Reading from standard input... Use '--help' for help.
============================[ Problem Statistics ]=============================
|                                                                             |
|  Number of variables:         87638                                         |
|  Number of clauses:          161767                                         |
|  Parse time:                   0.04 s                                       |
|                                                                             |
============================[ Search Statistics ]==============================
| Conflicts |          ORIGINAL         |          LEARNT          | Progress |
|           |    Vars  Clauses Literals |    Limit  Clauses Lit/Cl |          |
===============================================================================
|       100 |   65079   115058   286869 |    42187      100     14 | 25.741 % |
|       250 |   65079   115058   286869 |    46406      250     31 | 25.741 % |
|       475 |   65079   115058   286869 |    51047      475     29 | 25.741 % |
|       812 |   65079   115058   286869 |    56152      812     60 | 25.741 % |
|      1318 |   65057   114966   286658 |    61767     1317     71 | 25.766 % |
|      2077 |   65057   114966   286658 |    67944     2076     71 | 25.766 % |
|      3216 |   65038   114890   286482 |    74738     3214     84 | 25.788 % |
|      4924 |   65037   114846   286392 |    82212     4914     98 | 25.789 % |
|      7486 |   64978   114601   285832 |    90433     7473     99 | 25.856 % |
|     11330 |   59317    96139   240624 |    99476    11227    100 | 32.316 % |
|     17096 |   59133    95308   238690 |   109424    16963    103 | 32.526 % |
===============================================================================
restarts              : 65
conflicts             : 19440          (6898 /sec)
decisions             : 102925         (0.00 % random) (36519 /sec)
propagations          : 30963304       (10986202 /sec)
conflict literals     : 1912608        (35.00 % deleted)
Memory used           : 43.83 MB
CPU time              : 2.81838 s

INDETERMINATE
